InboundTrucks  = 10;
OutboundTrucks = 10;
InboundDoors   = 4;
OutboundDoors  = 4;
ReleaseTime    = [110,108,7,11,10,46,106,21,94,103];
UnloadTime     = [26,29,23,17,14,14,18,25,14,30];
LoadTime       = [7,18,6,12,12,6,18,5,9,10];
TransferTime   = [| 0,0,0,0,0,0,0,8,0,2 | 0,0,0,0,0,0,0,0,0,0 | 0,0,0,7,0,0,0,2,0,0 | 7,0,0,2,7,0,0,0,0,0 | 0,7,0,0,0,0,0,0,0,0 | 0,0,0,0,0,3,0,0,0,3 | 3,0,0,5,0,0,2,3,0,0 | 0,0,7,0,0,0,4,0,5,0 | 0,0,0,4,0,0,0,0,0,2 | 0,0,0,0,8,0,4,4,5,8 |];
